c Reduced graph for 5-FullIns_3_0 generated by Cyril Grelier
p edge 121 578
e 1 2
e 1 3
e 1 4
e 1 5
e 1 6
e 1 7
e 1 8
e 1 9
e 1 10
e 1 31
e 1 32
e 1 48
e 1 49
e 1 50
e 1 51
e 1 52
e 1 53
e 1 54
e 1 55
e 1 80
e 1 81
e 1 90
e 1 91
e 1 98
e 1 99
e 2 3
e 2 4
e 2 5
e 2 11
e 2 12
e 2 13
e 2 14
e 2 15
e 2 33
e 2 34
e 2 56
e 2 57
e 2 58
e 2 59
e 2 60
e 2 61
e 2 62
e 2 63
e 2 80
e 2 81
e 2 92
e 2 93
e 2 100
e 2 101
e 3 4
e 3 5
e 3 16
e 3 17
e 3 18
e 3 19
e 3 20
e 3 35
e 3 36
e 3 64
e 3 65
e 3 66
e 3 67
e 3 68
e 3 69
e 3 70
e 3 71
e 3 80
e 3 81
e 3 94
e 3 95
e 3 102
e 3 103
e 4 5
e 4 21
e 4 22
e 4 23
e 4 24
e 4 25
e 4 37
e 4 38
e 4 72
e 4 73
e 4 74
e 4 75
e 4 76
e 4 77
e 4 78
e 4 79
e 4 80
e 4 81
e 4 96
e 4 97
e 4 104
e 4 105
e 5 41
e 5 42
e 5 43
e 5 44
e 5 45
e 5 46
e 5 47
e 5 80
e 5 81
e 5 106
e 5 107
e 5 108
e 5 109
e 5 110
e 5 111
e 5 112
e 5 113
e 5 118
e 5 119
e 5 120
e 5 121
e 6 12
e 6 13
e 6 14
e 6 15
e 6 27
e 6 28
e 6 29
e 6 30
e 6 33
e 6 34
e 6 39
e 6 40
e 6 56
e 6 57
e 6 82
e 6 83
e 7 11
e 7 13
e 7 14
e 7 15
e 7 26
e 7 28
e 7 29
e 7 30
e 7 33
e 7 34
e 7 39
e 7 40
e 7 58
e 7 59
e 7 84
e 7 85
e 8 11
e 8 12
e 8 14
e 8 15
e 8 26
e 8 27
e 8 29
e 8 30
e 8 33
e 8 34
e 8 39
e 8 40
e 8 60
e 8 61
e 8 86
e 8 87
e 9 11
e 9 12
e 9 13
e 9 15
e 9 26
e 9 27
e 9 28
e 9 30
e 9 33
e 9 34
e 9 39
e 9 40
e 9 62
e 9 63
e 9 88
e 9 89
e 10 11
e 10 12
e 10 13
e 10 14
e 10 26
e 10 27
e 10 28
e 10 29
e 10 33
e 10 34
e 10 39
e 10 40
e 10 92
e 10 93
e 10 114
e 10 115
e 11 17
e 11 18
e 11 19
e 11 20
e 11 31
e 11 32
e 11 35
e 11 36
e 11 48
e 11 49
e 11 64
e 11 65
e 12 16
e 12 18
e 12 19
e 12 20
e 12 31
e 12 32
e 12 35
e 12 36
e 12 50
e 12 51
e 12 66
e 12 67
e 13 16
e 13 17
e 13 19
e 13 20
e 13 31
e 13 32
e 13 35
e 13 36
e 13 52
e 13 53
e 13 68
e 13 69
e 14 16
e 14 17
e 14 18
e 14 20
e 14 31
e 14 32
e 14 35
e 14 36
e 14 54
e 14 55
e 14 70
e 14 71
e 15 16
e 15 17
e 15 18
e 15 19
e 15 31
e 15 32
e 15 35
e 15 36
e 15 90
e 15 91
e 15 94
e 15 95
e 16 22
e 16 23
e 16 24
e 16 25
e 16 33
e 16 34
e 16 37
e 16 38
e 16 56
e 16 57
e 16 72
e 16 73
e 17 21
e 17 23
e 17 24
e 17 25
e 17 33
e 17 34
e 17 37
e 17 38
e 17 58
e 17 59
e 17 74
e 17 75
e 18 21
e 18 22
e 18 24
e 18 25
e 18 33
e 18 34
e 18 37
e 18 38
e 18 60
e 18 61
e 18 76
e 18 77
e 19 21
e 19 22
e 19 23
e 19 25
e 19 33
e 19 34
e 19 37
e 19 38
e 19 62
e 19 63
e 19 78
e 19 79
e 20 21
e 20 22
e 20 23
e 20 24
e 20 33
e 20 34
e 20 37
e 20 38
e 20 92
e 20 93
e 20 96
e 20 97
e 21 35
e 21 36
e 21 42
e 21 43
e 21 44
e 21 45
e 21 46
e 21 47
e 21 64
e 21 65
e 21 106
e 21 107
e 22 35
e 22 36
e 22 41
e 22 43
e 22 44
e 22 45
e 22 46
e 22 47
e 22 66
e 22 67
e 22 108
e 22 109
e 23 35
e 23 36
e 23 41
e 23 42
e 23 44
e 23 45
e 23 46
e 23 47
e 23 68
e 23 69
e 23 110
e 23 111
e 24 35
e 24 36
e 24 41
e 24 42
e 24 43
e 24 45
e 24 46
e 24 47
e 24 70
e 24 71
e 24 112
e 24 113
e 25 35
e 25 36
e 25 41
e 25 42
e 25 43
e 25 44
e 25 46
e 25 47
e 25 94
e 25 95
e 25 118
e 25 119
e 26 27
e 26 28
e 26 29
e 26 30
e 26 31
e 26 32
e 26 39
e 26 40
e 26 48
e 26 49
e 26 82
e 26 83
e 27 28
e 27 29
e 27 30
e 27 31
e 27 32
e 27 39
e 27 40
e 27 50
e 27 51
e 27 84
e 27 85
e 28 29
e 28 30
e 28 31
e 28 32
e 28 39
e 28 40
e 28 52
e 28 53
e 28 86
e 28 87
e 29 30
e 29 31
e 29 32
e 29 39
e 29 40
e 29 54
e 29 55
e 29 88
e 29 89
e 30 31
e 30 32
e 30 39
e 30 40
e 30 90
e 30 91
e 30 114
e 30 115
e 31 34
e 31 40
e 32 33
e 32 39
e 33 36
e 34 35
e 35 38
e 36 37
e 37 41
e 37 42
e 37 43
e 37 44
e 37 45
e 37 47
e 38 41
e 38 42
e 38 43
e 38 44
e 38 45
e 38 46
e 39 40
e 41 72
e 41 73
e 42 74
e 42 75
e 43 76
e 43 77
e 44 78
e 44 79
e 45 96
e 45 97
e 48 59
e 48 85
e 48 101
e 48 117
e 49 58
e 49 84
e 49 100
e 49 116
e 50 57
e 50 61
e 50 83
e 50 87
e 51 56
e 51 60
e 51 82
e 51 86
e 52 59
e 52 63
e 52 85
e 52 89
e 53 58
e 53 62
e 53 84
e 53 88
e 54 61
e 54 87
e 54 93
e 54 115
e 55 60
e 55 86
e 55 92
e 55 114
e 56 67
e 56 99
e 56 103
e 57 66
e 57 98
e 57 102
e 58 65
e 58 69
e 59 64
e 59 68
e 60 67
e 60 71
e 61 66
e 61 70
e 62 69
e 62 91
e 62 95
e 63 68
e 63 90
e 63 94
e 64 75
e 64 101
e 64 105
e 65 74
e 65 100
e 65 104
e 66 73
e 66 77
e 67 72
e 67 76
e 68 75
e 68 79
e 69 74
e 69 78
e 70 77
e 70 93
e 70 97
e 71 76
e 71 92
e 71 96
e 72 103
e 72 109
e 72 121
e 73 102
e 73 108
e 73 120
e 74 107
e 74 111
e 75 106
e 75 110
e 76 109
e 76 113
e 77 108
e 77 112
e 78 95
e 78 111
e 78 119
e 79 94
e 79 110
e 79 118
e 80 81
e 82 85
e 82 99
e 82 117
e 83 84
e 83 98
e 83 116
e 84 87
e 85 86
e 86 89
e 87 88
e 88 91
e 88 115
e 89 90
e 89 114
e 96 113
e 97 112
e 98 101
e 98 117
e 99 100
e 99 116
e 100 103
e 101 102
e 102 105
e 103 104
e 104 107
e 104 121
e 105 106
e 105 120
e 116 117
